1, 19, 20, 38, 40, 41, 49, 48, 50, 51, 43, 42, 39, 35, 33, 1
1, 36, 34, 29, 28, 27, 21, 30, 22, 53, 52, 15, 1
1, 14, 16, 4, 6, 5, 9, 12, 11, 10, 13, 8, 7, 3, 2, 18, 1
1, 17, 31, 32, 24, 37, 47, 46, 45, 44, 25, 23, 26, 1
